Ordonnancement/plne/source/petit_instance/5job/5job_1.dat
data;
param nombreJob := 5;
param nombreRessource := 3;
param duree := 1 2 2 5 3 4 4 7 5 1;
param capaciteRessource := 1 7 2 13 3 11;
param besoinRessource : 1 2 3 :=
                    1   1 1 4
                    2   4 6 10
                    3   4 3 5
                    4   3 5 4
                    5   3 2 10;
end;

