Ordonnancement/plne/source/glpk_resultat/5job/5job_1.sol
Problem:    glpsolRcpsp
Rows:       243
Columns:    96 (95 integer, 95 binary)
Non-zeros:  1506
Status:     INTEGER OPTIMAL
Objective:  obj = 13 (MINimum)

   No.   Row name        Activity     Lower bound   Upper bound
------ ------------    ------------- ------------- -------------
     1 periode[1]                  2             2             = 
     2 periode[2]                  5             5             = 
     3 periode[3]                  4             4             = 
     4 periode[4]                  7             7             = 
     5 periode[5]                  1             1             = 
     6 complet[1,1]                2                           2 
     7 complet[1,2]                2                           2 
     8 complet[1,3]                2                           2 
     9 complet[1,4]                2                           2 
    10 complet[1,5]                2                           2 
    11 complet[1,6]                2                           2 
    12 complet[1,7]                2                           2 
    13 complet[1,8]                2                           2 
    14 complet[1,9]               -1                           2 
    15 complet[1,10]
                                   0                           2 
    16 complet[1,11]
                                   2                           2 
    17 complet[1,12]
                                   0                           2 
    18 complet[1,13]
                                   0                           2 
    19 complet[1,14]
                                   0                           2 
    20 complet[1,15]
                                   0                           2 
    21 complet[1,16]
                                   0                           2 
    22 complet[1,17]
                                   0                           2 
    23 complet[2,1]                3                           5 
    24 complet[2,2]                2                           5 
    25 complet[2,3]                1                           5 
    26 complet[2,4]                0                           5 
    27 complet[2,5]                5                           5 
    28 complet[2,6]                0                           5 
    29 complet[2,7]                0                           5 
    30 complet[2,8]                0                           5 
    31 complet[2,9]                0                           5 
    32 complet[2,10]
                                   0                           5 
    33 complet[2,11]
                                   0                           5 
    34 complet[2,12]
                                   0                           5 
    35 complet[2,13]
                                   0                           5 
    36 complet[2,14]
                                   0                           5 
    37 complet[2,15]
                                   0                           5 
    38 complet[2,16]
                                   0                           5 
    39 complet[2,17]
                                   0                           5 
    40 complet[3,1]                4                           4 
    41 complet[3,2]                4                           4 
    42 complet[3,3]                4                           4 
    43 complet[3,4]                4                           4 
    44 complet[3,5]               -1                           4 
    45 complet[3,6]                2                           4 
    46 complet[3,7]                1                           4 
    47 complet[3,8]                0                           4 
    48 complet[3,9]                4                           4 
    49 complet[3,10]
                                   0                           4 
    50 complet[3,11]
                                   0                           4 
    51 complet[3,12]
                                   0                           4 
    52 complet[3,13]
                                   0                           4 
    53 complet[3,14]
                                   0                           4 
    54 complet[3,15]
                                   0                           4 
    55 complet[3,16]
                                   0                           4 
    56 complet[3,17]
                                   0                           4 
    57 complet[4,1]                7                           7 
    58 complet[4,2]                7                           7 
    59 complet[4,3]                7                           7 
    60 complet[4,4]                7                           7 
    61 complet[4,5]               -1                           7 
    62 complet[4,6]                5                           7 
    63 complet[4,7]                4                           7 
    64 complet[4,8]                3                           7 
    65 complet[4,9]                2                           7 
    66 complet[4,10]
                                   1                           7 
    67 complet[4,11]
                                   0                           7 
    68 complet[4,12]
                                   7                           7 
    69 complet[4,13]
                                   0                           7 
    70 complet[4,14]
                                   0                           7 
    71 complet[4,15]
                                   0                           7 
    72 complet[4,16]
                                   0                           7 
    73 complet[4,17]
                                   0                           7 
    74 complet[5,1]                1                           1 
    75 complet[5,2]                1                           1 
    76 complet[5,3]                1                           1 
    77 complet[5,4]                1                           1 
    78 complet[5,5]                1                           1 
    79 complet[5,6]                1                           1 
    80 complet[5,7]                1                           1 
    81 complet[5,8]                1                           1 
    82 complet[5,9]                1                           1 
    83 complet[5,10]
                                   1                           1 
    84 complet[5,11]
                                   1                           1 
    85 complet[5,12]
                                  -1                           1 
    86 complet[5,13]
                                   1                           1 
    87 complet[5,14]
                                   0                           1 
    88 complet[5,15]
                                   0                           1 
    89 complet[5,16]
                                   0                           1 
    90 complet[5,17]
                                   0                           1 
    91 cmax[1,1]                  13            -0               
    92 cmax[1,2]                  13            -0               
    93 cmax[1,3]                  13            -0               
    94 cmax[1,4]                  13            -0               
    95 cmax[1,5]                  13            -0               
    96 cmax[1,6]                  13            -0               
    97 cmax[1,7]                  13            -0               
    98 cmax[1,8]                  13            -0               
    99 cmax[1,9]                  13            -0               
   100 cmax[1,10]                  3            -0               
   101 cmax[1,11]                  2            -0               
   102 cmax[1,12]                 13            -0               
   103 cmax[1,13]                 13            -0               
   104 cmax[1,14]                 13            -0               
   105 cmax[1,15]                 13            -0               
   106 cmax[1,16]                 13            -0               
   107 cmax[1,17]                 13            -0               
   108 cmax[1,18]                 13            -0               
   109 cmax[1,19]                 13            -0               
   110 cmax[2,1]                  12            -0               
   111 cmax[2,2]                  11            -0               
   112 cmax[2,3]                  10            -0               
   113 cmax[2,4]                   9            -0               
   114 cmax[2,5]                   8            -0               
   115 cmax[2,6]                  13            -0               
   116 cmax[2,7]                  13            -0               
   117 cmax[2,8]                  13            -0               
   118 cmax[2,9]                  13            -0               
   119 cmax[2,10]                 13            -0               
   120 cmax[2,11]                 13            -0               
   121 cmax[2,12]                 13            -0               
   122 cmax[2,13]                 13            -0               
   123 cmax[2,14]                 13            -0               
   124 cmax[2,15]                 13            -0               
   125 cmax[2,16]                 13            -0               
   126 cmax[2,17]                 13            -0               
   127 cmax[2,18]                 13            -0               
   128 cmax[2,19]                 13            -0               
   129 cmax[3,1]                  13            -0               
   130 cmax[3,2]                  13            -0               
   131 cmax[3,3]                  13            -0               
   132 cmax[3,4]                  13            -0               
   133 cmax[3,5]                  13            -0               
   134 cmax[3,6]                   7            -0               
   135 cmax[3,7]                   6            -0               
   136 cmax[3,8]                   5            -0               
   137 cmax[3,9]                   4            -0               
   138 cmax[3,10]                 13            -0               
   139 cmax[3,11]                 13            -0               
   140 cmax[3,12]                 13            -0               
   141 cmax[3,13]                 13            -0               
   142 cmax[3,14]                 13            -0               
   143 cmax[3,15]                 13            -0               
   144 cmax[3,16]                 13            -0               
   145 cmax[3,17]                 13            -0               
   146 cmax[3,18]                 13            -0               
   147 cmax[3,19]                 13            -0               
   148 cmax[4,1]                  13            -0               
   149 cmax[4,2]                  13            -0               
   150 cmax[4,3]                  13            -0               
   151 cmax[4,4]                  13            -0               
   152 cmax[4,5]                  13            -0               
   153 cmax[4,6]                   7            -0               
   154 cmax[4,7]                   6            -0               
   155 cmax[4,8]                   5            -0               
   156 cmax[4,9]                   4            -0               
   157 cmax[4,10]                  3            -0               
   158 cmax[4,11]                  2            -0               
   159 cmax[4,12]                  1            -0               
   160 cmax[4,13]                 13            -0               
   161 cmax[4,14]                 13            -0               
   162 cmax[4,15]                 13            -0               
   163 cmax[4,16]                 13            -0               
   164 cmax[4,17]                 13            -0               
   165 cmax[4,18]                 13            -0               
   166 cmax[4,19]                 13            -0               
   167 cmax[5,1]                  13            -0               
   168 cmax[5,2]                  13            -0               
   169 cmax[5,3]                  13            -0               
   170 cmax[5,4]                  13            -0               
   171 cmax[5,5]                  13            -0               
   172 cmax[5,6]                  13            -0               
   173 cmax[5,7]                  13            -0               
   174 cmax[5,8]                  13            -0               
   175 cmax[5,9]                  13            -0               
   176 cmax[5,10]                 13            -0               
   177 cmax[5,11]                 13            -0               
   178 cmax[5,12]                 13            -0               
   179 cmax[5,13]                  0            -0               
   180 cmax[5,14]                 13            -0               
   181 cmax[5,15]                 13            -0               
   182 cmax[5,16]                 13            -0               
   183 cmax[5,17]                 13            -0               
   184 cmax[5,18]                 13            -0               
   185 cmax[5,19]                 13            -0               
   186 ressource[1,1]
                                   4                           7 
   187 ressource[1,2]
                                   4                           7 
   188 ressource[1,3]
                                   4                           7 
   189 ressource[1,4]
                                   4                           7 
   190 ressource[1,5]
                                   4                           7 
   191 ressource[1,6]
                                   7                           7 
   192 ressource[1,7]
                                   7                           7 
   193 ressource[1,8]
                                   7                           7 
   194 ressource[1,9]
                                   7                           7 
   195 ressource[1,10]
                                   4                           7 
   196 ressource[1,11]
                                   4                           7 
   197 ressource[1,12]
                                   3                           7 
   198 ressource[1,13]
                                   3                           7 
   199 ressource[1,14]
                                   0                           7 
   200 ressource[1,15]
                                   0                           7 
   201 ressource[1,16]
                                   0                           7 
   202 ressource[1,17]
                                   0                           7 
   203 ressource[1,18]
                                   0                           7 
   204 ressource[1,19]
                                   0                           7 
   205 ressource[2,1]
                                   6                          13 
   206 ressource[2,2]
                                   6                          13 
   207 ressource[2,3]
                                   6                          13 
   208 ressource[2,4]
                                   6                          13 
   209 ressource[2,5]
                                   6                          13 
   210 ressource[2,6]
                                   8                          13 
   211 ressource[2,7]
                                   8                          13 
   212 ressource[2,8]
                                   8                          13 
   213 ressource[2,9]
                                   8                          13 
   214 ressource[2,10]
                                   6                          13 
   215 ressource[2,11]
                                   6                          13 
   216 ressource[2,12]
                                   5                          13 
   217 ressource[2,13]
                                   2                          13 
   218 ressource[2,14]
                                   0                          13 
   219 ressource[2,15]
                                   0                          13 
   220 ressource[2,16]
                                   0                          13 
   221 ressource[2,17]
                                   0                          13 
   222 ressource[2,18]
                                   0                          13 
   223 ressource[2,19]
                                   0                          13 
   224 ressource[3,1]
                                  10                          11 
   225 ressource[3,2]
                                  10                          11 
   226 ressource[3,3]
                                  10                          11 
   227 ressource[3,4]
                                  10                          11 
   228 ressource[3,5]
                                  10                          11 
   229 ressource[3,6]
                                   9                          11 
   230 ressource[3,7]
                                   9                          11 
   231 ressource[3,8]
                                   9                          11 
   232 ressource[3,9]
                                   9                          11 
   233 ressource[3,10]
                                   8                          11 
   234 ressource[3,11]
                                   8                          11 
   235 ressource[3,12]
                                   4                          11 
   236 ressource[3,13]
                                  10                          11 
   237 ressource[3,14]
                                   0                          11 
   238 ressource[3,15]
                                   0                          11 
   239 ressource[3,16]
                                   0                          11 
   240 ressource[3,17]
                                   0                          11 
   241 ressource[3,18]
                                   0                          11 
   242 ressource[3,19]
                                   0                          11 
   243 obj                        13                             

   No. Column name       Activity     Lower bound   Upper bound
------ ------------    ------------- ------------- -------------
     1 x[1,1]       *              0             0             1 
     2 x[1,2]       *              0             0             1 
     3 x[1,3]       *              0             0             1 
     4 x[1,4]       *              0             0             1 
     5 x[1,5]       *              0             0             1 
     6 x[1,6]       *              0             0             1 
     7 x[1,7]       *              0             0             1 
     8 x[1,8]       *              0             0             1 
     9 x[1,9]       *              0             0             1 
    10 x[1,10]      *              1             0             1 
    11 x[1,11]      *              1             0             1 
    12 x[1,12]      *              0             0             1 
    13 x[1,13]      *              0             0             1 
    14 x[1,14]      *              0             0             1 
    15 x[1,15]      *              0             0             1 
    16 x[1,16]      *              0             0             1 
    17 x[1,17]      *              0             0             1 
    18 x[1,18]      *              0             0             1 
    19 x[1,19]      *              0             0             1 
    20 x[2,1]       *              1             0             1 
    21 x[2,2]       *              1             0             1 
    22 x[2,3]       *              1             0             1 
    23 x[2,4]       *              1             0             1 
    24 x[2,5]       *              1             0             1 
    25 x[2,6]       *              0             0             1 
    26 x[2,7]       *              0             0             1 
    27 x[2,8]       *              0             0             1 
    28 x[2,9]       *              0             0             1 
    29 x[2,10]      *              0             0             1 
    30 x[2,11]      *              0             0             1 
    31 x[2,12]      *              0             0             1 
    32 x[2,13]      *              0             0             1 
    33 x[2,14]      *              0             0             1 
    34 x[2,15]      *              0             0             1 
    35 x[2,16]      *              0             0             1 
    36 x[2,17]      *              0             0             1 
    37 x[2,18]      *              0             0             1 
    38 x[2,19]      *              0             0             1 
    39 x[3,1]       *              0             0             1 
    40 x[3,2]       *              0             0             1 
    41 x[3,3]       *              0             0             1 
    42 x[3,4]       *              0             0             1 
    43 x[3,5]       *              0             0             1 
    44 x[3,6]       *              1             0             1 
    45 x[3,7]       *              1             0             1 
    46 x[3,8]       *              1             0             1 
    47 x[3,9]       *              1             0             1 
    48 x[3,10]      *              0             0             1 
    49 x[3,11]      *              0             0             1 
    50 x[3,12]      *              0             0             1 
    51 x[3,13]      *              0             0             1 
    52 x[3,14]      *              0             0             1 
    53 x[3,15]      *              0             0             1 
    54 x[3,16]      *              0             0             1 
    55 x[3,17]      *              0             0             1 
    56 x[3,18]      *              0             0             1 
    57 x[3,19]      *              0             0             1 
    58 x[4,1]       *              0             0             1 
    59 x[4,2]       *              0             0             1 
    60 x[4,3]       *              0             0             1 
    61 x[4,4]       *              0             0             1 
    62 x[4,5]       *              0             0             1 
    63 x[4,6]       *              1             0             1 
    64 x[4,7]       *              1             0             1 
    65 x[4,8]       *              1             0             1 
    66 x[4,9]       *              1             0             1 
    67 x[4,10]      *              1             0             1 
    68 x[4,11]      *              1             0             1 
    69 x[4,12]      *              1             0             1 
    70 x[4,13]      *              0             0             1 
    71 x[4,14]      *              0             0             1 
    72 x[4,15]      *              0             0             1 
    73 x[4,16]      *              0             0             1 
    74 x[4,17]      *              0             0             1 
    75 x[4,18]      *              0             0             1 
    76 x[4,19]      *              0             0             1 
    77 x[5,1]       *              0             0             1 
    78 x[5,2]       *              0             0             1 
    79 x[5,3]       *              0             0             1 
    80 x[5,4]       *              0             0             1 
    81 x[5,5]       *              0             0             1 
    82 x[5,6]       *              0             0             1 
    83 x[5,7]       *              0             0             1 
    84 x[5,8]       *              0             0             1 
    85 x[5,9]       *              0             0             1 
    86 x[5,10]      *              0             0             1 
    87 x[5,11]      *              0             0             1 
    88 x[5,12]      *              0             0             1 
    89 x[5,13]      *              1             0             1 
    90 x[5,14]      *              0             0             1 
    91 x[5,15]      *              0             0             1 
    92 x[5,16]      *              0             0             1 
    93 x[5,17]      *              0             0             1 
    94 x[5,18]      *              0             0             1 
    95 x[5,19]      *              0             0             1 
    96 z                          13                             

Integer feasibility conditions:

KKT.PE: max.abs.err = 0.00e+00 on row 0
        max.rel.err = 0.00e+00 on row 0
        High quality

KKT.PB: max.abs.err = 0.00e+00 on row 0
        max.rel.err = 0.00e+00 on row 0
        High quality

End of output
